
  32    4
  10   10   10   10

   0   0   0   0   0   6 2 3 4 5 6 7 
   3   1   0   1   1   5 12 11 10 9 8 
   8   2   1   0   4   4 12 11 10 8 
   1   0   5   1   5   3 11 10 8 
   7   6   4   0   2   3 12 10 9 
   1   5   0   3   3   3 16 11 8 
   6   0   3   4   2   3 16 12 8 
   3   4   0   4   3   4 17 15 14 13 
   4   0   4   8   3   4 17 16 14 13 
   7   3   0   2   1   4 20 16 15 14 
   7   0   2   4   8   3 17 15 13 
   8   0   3   3   2   3 17 14 13 
   3   5   8   3   0   6 24 23 21 20 19 18 
   4   3   3   0   2   5 24 23 22 21 19 
   4   3   0   6   6   4 22 21 19 18 
   4   0   5   5   2   4 24 22 19 18 
   4   5   6   0   3   3 24 21 18 
   9   3   2   1   0   3 31 26 25 
  10   3   5  10   0   3 31 26 25 
   6   4   0   5   5   3 31 26 25 
   2   4   5   0   8   3 31 28 25 
   5   7   0   4   5   3 31 28 25 
  10   3   2   5   0   3 31 28 25 
   3   0   4   3   4   2 28 25 
   1   3   3   6   0   3 30 29 27 
   9   0   2   4   8   2 28 27 
  10   3   5   4   0   1 32
   4   6   8   0   5   1 32
   7   0   4   2   7   1 32
   9   7   4   0   5   1 32
   1   4   4   0   2   1 32
   0   0   0   0   0   0 
